1 0 3 2 5 4 7 6 9 10 11 134 13 14 15 26 17 18 19 8 21 32 23 24 25 36 27 16 29 30 31 20 33 135 35 34 37 38 39 28 41 40 43 54 45 56 47 46 49 50 51 62 53 42 55 136 57 58 59 48 61 60 63 52 65 64 66 67 68 69 70 71 72 73 74 75 76 77 78 79 80 81 82 83 84 85 86 87 88 89 91 92 93 104 95 106 97 108 99 98 101 90 103 114 105 94 107 96 109 110 111 137 113 102 115 116 117 128 119 130 121 138 123 122 125 124 127 126 129 118 131 120 133 132 12 22 44 100 112 
